$comment
qchem control file
EnzyDock qm/mm simulations
$end

$rem
method                hf3c
basis                 minix
print_general_basis   true
qm_mm                 true
jobtype               force
symmetry              off
sym_ignore            true
print_input           false
scf_guess             read
max_scf_cycles        1000
thresh                8
scf_convergence       5
$end

$molecule
0  1
$end
