$comment
qchem control file
qm/mm EnzyDock simulations
$end

$rem
method                hf3c
basis                 minix
print_general_basis   true
qm_mm                 true
jobtype               sp
symmetry              off
sym_ignore            true
print_input           false
qmmm_print            true
max_scf_cycles        1000
thresh                8
scf_convergence       5
scf_guess             sad !gwh
$end

$molecule
0  1
$end
